solving instance uflp nlass gunluk ../../../../../instances/uflp/gunluk/gunluk-20-40-6.txt log
Couenne 0.5.8 -- an Open-Source solver for Mixed Integer Nonlinear Optimization
Mailing list: couenne@list.coin-or.org
Instructions: http://www.coin-or.org/Couenne
couenne: 
ANALYSIS TEST: Reformulating problem: 1.8 seconds
NLP0012I 
              Num      Status      Obj             It       time                 Location
NLP0014I             1         OPT 646.21233      240 19.714739
Couenne: new cutoff value 6.4621248376e+02 (24.2966 seconds)
NLP0014I             2         OPT 646.21234       76 1.648645
Couenne: new cutoff value 6.4621234916e+02 (25.9486 seconds)
Loaded instance "/tmp/jl_535OZP/model.nl"
Constraints:         2440
Variables:           2420 (820 integer)
Auxiliaries:         1641 (0 integer)

Coin0506I Presolve 7191 (-850) rows, 3171 (-890) columns and 15921 (-1740) elements
Clp0006I 0  Obj 0 Primal inf 360.61473 (40)
Clp0006I 218  Obj 4.5561839e-12 Primal inf 602.88316 (85)
Clp0006I 436  Obj 1.0395801e-10 Primal inf 490.14128 (81)
Clp0006I 654  Obj 4.3082066e-05 Primal inf 480.3657 (74)
Clp0006I 827  Obj 0.00011642965 Primal inf 839.99821 (74)
Clp0006I 1031  Obj 121.70668 Primal inf 251.37668 (66)
Clp0006I 1249  Obj 121.70668 Primal inf 309.8271 (66)
Clp0006I 1467  Obj 121.70668 Primal inf 306.23299 (66)
Clp0006I 1685  Obj 121.70668 Primal inf 327.34053 (65)
Clp0006I 1903  Obj 190.17343 Primal inf 227.47406 (54)
Clp0006I 2121  Obj 477.33039 Primal inf 44.166902 (30)
Clp0006I 2140  Obj 498.28553
Clp0000I Optimal - objective value 498.28542
Clp0032I Optimal objective 498.285424 - 2140 iterations time 0.252, Presolve 0.04
Clp0000I Optimal - objective value 498.28542
Couenne: new cutoff value 4.9828542401e+02 (26.3956 seconds)
Cbc0012I Integer solution of 646.21235 found by Couenne Rounding NLP after 0 iterations and 0 nodes (0.02 seconds)
NLP Heuristic: NLP0014I             3         OPT 498.28541       22 3.189762
no solution.
Clp0000I Optimal - objective value 498.28542
Optimality Based BT: 0 improved bounds
Probing: 41 improved bounds
NLP Heuristic: time limit reached.
Cbc0013I At root node, 0 cuts changed objective from 498.28542 to 498.28542 in 1 passes
Cbc0014I Cut generator 0 (Couenne convexifier cuts) - 0 row cuts average 0.0 elements, 1 column cuts (1 active)
Cbc0004I Integer solution of 498.28542 found after 0 iterations and 0 nodes (8.20 seconds)
Cbc0001I Search completed - best objective 498.2854240073121, took 0 iterations and 0 nodes (8.22 seconds)
Cbc0035I Maximum depth 0, 0 variables fixed on reduced cost

 	"Finished"

Linearization cuts added at root node:       8041
Linearization cuts added in total:           8041  (separation time: 0.024121s)
Total solve time:                         8.48221s (8.48221s in branch-and-bound)
Lower bound:                              498.285
Upper bound:                              498.285  (gap: 0.00%)
Branch-and-bound nodes:                         0
Stats: /tmp/jl_535OZP/model.nl 2420 [var]  820 [int] 2440 [con] 1641 [aux]   8041 [root]     8041 [tot] 0.024121 [sep]  8.48221 [time]  8.49129 [bb]         4.982854e+02 [lower]         4.982854e+02 [upper]       0 [nodes]
Performance of                           FBBT:	   0.033189s,        4 runs. fix:          0 shrnk:    5133.06 ubd:          0 2ubd:          0 infeas:          0
Performance of                           OBBT:	   0.012245s,        1 runs. fix:          0 shrnk:          0 ubd:          0 2ubd:          0 infeas:          0
ERROR: LoadError: MathOptInterface.GetAttributeNotAllowed{MathOptInterface.ObjectiveBound}: Getting attribute MathOptInterface.ObjectiveBound() cannot be performed: AmplNLWriter.Optimizer does not support getting the attribute MathOptInterface.ObjectiveBound(). You may want to use a `CachingOptimizer` in `AUTOMATIC` mode or you may need to call `reset_optimizer` before doing this operation if the `CachingOptimizer` is in `MANUAL` mode.
Stacktrace:
  [1] get_fallback(model::AmplNLWriter.Optimizer, attr::MathOptInterface.ObjectiveBound)
    @ MathOptInterface ~/.julia/packages/MathOptInterface/gLl4d/src/attributes.jl:409
  [2] get(::AmplNLWriter.Optimizer, ::MathOptInterface.ObjectiveBound)
    @ MathOptInterface ~/.julia/packages/MathOptInterface/gLl4d/src/attributes.jl:390
  [3] _get_model_attribute(model::MathOptInterface.Utilities.CachingOptimizer{AmplNLWriter.Optimizer, MathOptInterface.Utilities.UniversalFallback{MathOptInterface.Utilities.Model{Float64}}}, attr::MathOptInterface.ObjectiveBound)
    @ MathOptInterface.Utilities ~/.julia/packages/MathOptInterface/gLl4d/src/Utilities/cachingoptimizer.jl:865
  [4] get(model::MathOptInterface.Utilities.CachingOptimizer{AmplNLWriter.Optimizer, MathOptInterface.Utilities.UniversalFallback{MathOptInterface.Utilities.Model{Float64}}}, attr::MathOptInterface.ObjectiveBound)
    @ MathOptInterface.Utilities ~/.julia/packages/MathOptInterface/gLl4d/src/Utilities/cachingoptimizer.jl:900
  [5] get(b::MathOptInterface.Bridges.LazyBridgeOptimizer{MathOptInterface.Utilities.CachingOptimizer{AmplNLWriter.Optimizer, MathOptInterface.Utilities.UniversalFallback{MathOptInterface.Utilities.Model{Float64}}}}, attr::MathOptInterface.ObjectiveBound)
    @ MathOptInterface.Bridges ~/.julia/packages/MathOptInterface/gLl4d/src/Bridges/bridge_optimizer.jl:889
  [6] _get_model_attribute(model::MathOptInterface.Utilities.CachingOptimizer{MathOptInterface.Bridges.LazyBridgeOptimizer{MathOptInterface.Utilities.CachingOptimizer{AmplNLWriter.Optimizer, MathOptInterface.Utilities.UniversalFallback{MathOptInterface.Utilities.Model{Float64}}}}, MathOptInterface.Utilities.UniversalFallback{MathOptInterface.Utilities.Model{Float64}}}, attr::MathOptInterface.ObjectiveBound)
    @ MathOptInterface.Utilities ~/.julia/packages/MathOptInterface/gLl4d/src/Utilities/cachingoptimizer.jl:865
  [7] get(model::MathOptInterface.Utilities.CachingOptimizer{MathOptInterface.Bridges.LazyBridgeOptimizer{MathOptInterface.Utilities.CachingOptimizer{AmplNLWriter.Optimizer, MathOptInterface.Utilities.UniversalFallback{MathOptInterface.Utilities.Model{Float64}}}}, MathOptInterface.Utilities.UniversalFallback{MathOptInterface.Utilities.Model{Float64}}}, attr::MathOptInterface.ObjectiveBound)
    @ MathOptInterface.Utilities ~/.julia/packages/MathOptInterface/gLl4d/src/Utilities/cachingoptimizer.jl:900
  [8] _moi_get_result(model::MathOptInterface.Utilities.CachingOptimizer{MathOptInterface.Bridges.LazyBridgeOptimizer{MathOptInterface.Utilities.CachingOptimizer{AmplNLWriter.Optimizer, MathOptInterface.Utilities.UniversalFallback{MathOptInterface.Utilities.Model{Float64}}}}, MathOptInterface.Utilities.UniversalFallback{MathOptInterface.Utilities.Model{Float64}}}, args::MathOptInterface.ObjectiveBound)
    @ JuMP ~/.julia/packages/JuMP/i68GU/src/optimizer_interface.jl:1053
  [9] get(model::JuMP.Model, attr::MathOptInterface.ObjectiveBound)
    @ JuMP ~/.julia/packages/JuMP/i68GU/src/optimizer_interface.jl:1073
 [10] objective_bound(model::JuMP.Model)
    @ JuMP ~/.julia/packages/JuMP/i68GU/src/objective.jl:78
 [11] nl_uflp_nlass(filename::String, cost::Symbol, solver::AmplNLWriter.Optimizer, solver_params::Vector{Any}; solve::Bool, write_nl::Bool, with_cap_constraint::Bool)
    @ IterativePWLB ~/git/ipwlb/code/sources/IterativePWLB/src/nlsolver.jl:885
 [12] top-level scope
    @ ~/git/ipwlb/code/sources/IterativePWLB/test/couenne/uflp_nlass/script.jl:14
in expression starting at /home/ccontard/git/ipwlb/code/sources/IterativePWLB/test/couenne/uflp_nlass/script.jl:14
Generating Gunluk and Lee data file ../../../../../instances/uflp/gunluk/gunluk-20-40-6.txt
